
******************************************************************************
This program contains Ipopt, a library for large-scale nonlinear optimization.
 Ipopt is released as open source code under the Eclipse Public License (EPL).
         For more information visit http://projects.coin-or.org/Ipopt
******************************************************************************

This is Ipopt version 3.12.6, running with linear solver ma57.

Number of nonzeros in equality constraint Jacobian...:    41395
Number of nonzeros in inequality constraint Jacobian.:        0
Number of nonzeros in Lagrangian Hessian.............:    17330

Total number of variables............................:     6905
                     variables with only lower bounds:     6905
                variables with lower and upper bounds:        0
                     variables with only upper bounds:        0
Total number of equality constraints.................:     6900
Total number of inequality constraints...............:        0
        inequality constraints with only lower bounds:        0
   inequality constraints with lower and upper bounds:        0
        inequality constraints with only upper bounds:        0

iter    objective    inf_pr   inf_du lg(mu)  ||d||  lg(rg) alpha_du alpha_pr  ls
   0  7.4859930e+00 1.00e+01 1.54e+01  -1.0 0.00e+00    -  0.00e+00 0.00e+00   0
   1  1.5146088e+01 8.92e+00 4.93e+01  -1.0 2.40e+00    -  4.29e-03 1.08e-01f  1
   2  7.5056297e+00 8.82e+00 1.84e+02  -1.0 2.75e+01    -  1.50e-02 1.12e-02f  1
   3  1.4179943e+00 2.27e+00 2.19e+03  -1.0 6.62e-01   2.0 1.00e+00 7.43e-01f  1
   4  8.1050496e-01 1.87e+00 1.75e+03  -1.0 1.87e-01    -  6.84e-01 1.76e-01f  1
   5  6.9876548e-01 1.73e+00 1.79e+03  -1.0 1.11e-01   1.5 1.03e-01 7.65e-02f  1
   6  3.9634652e-01 5.62e-01 1.14e+05  -1.0 4.63e-02   1.9 3.93e-02 6.75e-01f  1
   7  3.9850678e-01 9.06e-02 7.99e+04  -1.0 6.07e-02   1.5 1.54e-01 9.83e-01f  1
   8  5.7811396e-01 9.31e-01 4.65e+04  -1.0 2.15e-01    -  3.07e-01 9.91e-01f  1
   9  4.0354099e-01 4.08e-02 2.31e+04  -1.0 8.16e-03   2.8 1.00e+00 1.00e+00f  1
iter    objective    inf_pr   inf_du lg(mu)  ||d||  lg(rg) alpha_du alpha_pr  ls
  10  4.0269442e-01 2.15e-02 4.15e+04  -1.0 4.40e-03   2.3 1.00e+00 1.00e+00f  1
  11  4.0250194e-01 3.83e-01 4.35e+04  -1.0 1.53e-02   1.8 1.00e+00 1.00e+00f  1
  12  4.0201748e-01 2.88e+01 6.51e+06  -1.0 4.19e-01   1.4 1.12e-01 4.11e-01f  1
  13  4.0225272e-01 8.04e+00 1.78e+06  -1.0 1.97e-01   1.8 1.00e+00 1.00e+00f  1
  14  4.0206280e-01 7.30e+00 2.34e+06  -1.0 1.92e-01   1.3 3.68e-01 1.40e-01f  1
  15  3.9030754e-01 5.90e+00 2.28e+06  -1.0 5.81e-01    -  3.39e-01 1.95e-01f  1
  16  3.8851280e-01 5.52e+00 1.90e+06  -1.0 3.56e-01   0.8 2.24e-02 6.53e-02h  1
  17  3.8807416e-01 5.52e+00 1.94e+06  -1.0 1.72e+03    -  1.44e-04 5.03e-06f  1
  18  3.6541155e-01 3.29e+00 7.78e+05  -1.0 4.40e-01   0.4 7.98e-02 4.06e-01f  1
  19  3.6511248e-01 3.28e+00 7.52e+05  -1.0 1.51e+00    -  8.87e-02 4.19e-03f  1
iter    objective    inf_pr   inf_du lg(mu)  ||d||  lg(rg) alpha_du alpha_pr  ls
  20  3.6261930e-01 2.86e+00 6.46e+05  -1.0 6.13e-01    -  5.53e-02 1.29e-01f  1
  21  3.6047722e-01 2.51e+00 5.77e+05  -1.0 9.89e-01    -  1.51e-01 1.22e-01f  1
  22  3.5940135e-01 2.29e+00 9.71e+05  -1.0 1.16e+00    -  3.90e-01 8.49e-02f  1
  23  3.5934674e-01 2.28e+00 9.74e+05  -1.0 2.34e+00    -  8.84e-03 4.39e-03f  1
  24  2.8053390e+00 3.18e+00 2.12e+06  -1.0 2.41e+00    -  1.24e-01 1.00e+00f  1
  25  6.1005207e+00 4.41e+00 2.56e+06  -1.0 1.31e+01    -  3.91e-02 2.88e-01f  1
  26  1.5560252e+01 2.66e+00 4.27e+06  -1.0 4.36e+00    -  3.94e-02 1.00e+00f  1
  27  3.6014319e-01 3.46e-02 2.04e+06  -1.0 1.17e-01  -0.1 3.20e-01 1.00e+00f  1
  28  3.5789961e-01 1.58e-01 3.25e+03  -1.0 3.16e-01  -0.6 1.00e+00 1.00e+00f  1
  29  3.6514762e-01 1.03e+01 6.70e+06  -1.0 1.85e+00  -1.1 2.21e-01 1.00e+00f  1
iter    objective    inf_pr   inf_du lg(mu)  ||d||  lg(rg) alpha_du alpha_pr  ls
  30  3.6658830e-01 4.99e+00 3.23e+06  -1.0 8.65e-01  -0.6 1.00e+00 6.61e-01h  1
  31  3.6590420e-01 4.68e+00 8.76e+06  -1.0 2.78e+00  -1.1 1.00e+00 6.39e-02h  1
  32  3.5680149e-01 1.30e+00 5.29e+06  -1.0 4.50e+00  -1.6 3.59e-01 7.27e-01h  1
  33  3.6721456e-01 3.28e+00 8.87e+06  -1.0 4.59e+02    -  1.26e-04 1.18e-02f  2
  34  7.2887658e-01 2.00e+01 8.55e+06  -1.0 1.51e+01    -  3.17e-01 9.11e-01f  1
  35  3.9328810e-01 7.66e+00 9.52e+05  -1.0 4.49e+00  -2.1 7.48e-01 1.00e+00f  1
  36  3.7989180e-01 1.90e+00 2.66e+05  -1.0 3.26e+00  -1.6 7.40e-01 1.00e+00f  1
  37  3.9197809e-01 8.80e+01 1.05e+07  -1.0 1.15e+01  -2.1 1.80e-01 1.00e+00f  1
  38  3.9173629e-01 3.94e+01 5.81e+06  -1.0 3.02e+00  -0.8 1.00e+00 5.58e-01h  1
  39  3.9030417e-01 2.51e+01 4.08e+05  -1.0 7.19e+00  -1.3 1.47e-01 6.15e-01h  1
iter    objective    inf_pr   inf_du lg(mu)  ||d||  lg(rg) alpha_du alpha_pr  ls
  40  3.8978490e-01 2.36e+01 7.83e+05  -1.0 1.26e+01  -1.7 9.60e-02 5.85e-02h  1
  41  3.8942055e-01 2.36e+01 1.52e+08  -1.0 1.81e+02    -  7.92e-02 2.09e-03f  1
  42  3.8837965e-01 2.16e+01 1.63e+08  -1.0 1.16e+01  -2.2 7.40e-02 8.52e-02h  1
  43  3.8371609e-01 1.58e+01 5.27e+08  -1.0 1.12e+01  -2.7 3.62e-02 2.88e-01h  1
  44  3.7210562e-01 2.24e+01 3.55e+08  -1.0 8.84e+01    -  5.30e-02 2.51e-01f  1
  45  3.6552319e-01 1.13e+01 2.10e+08  -1.0 7.39e+01    -  1.23e-01 4.70e-01f  1
  46  3.6540880e-01 1.12e+01 2.04e+08  -1.0 6.72e+01    -  9.66e-02 1.28e-02f  1
  47  3.6573864e-01 1.25e+01 2.66e+07  -1.0 6.65e+01    -  5.60e-02 1.00e+00f  1
  48  3.6560228e-01 1.95e+01 5.73e+06  -1.0 7.15e+01    -  3.56e-01 1.00e+00f  1
  49  3.6568498e-01 9.18e-01 5.24e+04  -1.0 5.73e+00  -3.2 9.88e-01 1.00e+00f  1
iter    objective    inf_pr   inf_du lg(mu)  ||d||  lg(rg) alpha_du alpha_pr  ls
  50  4.0810858e-01 2.13e+01 1.31e+06  -1.0 2.17e+02    -  3.52e-01 1.00e+00f  1
  51  3.6773267e-01 1.35e+02 1.89e+06  -1.0 2.25e+01  -3.7 3.96e-01 1.00e+00f  1
  52  3.6816700e-01 1.77e+02 3.19e+05  -1.0 2.24e+01  -4.1 1.00e+00 8.64e-01h  1
  53  3.6698859e-01 1.41e+02 4.10e+05  -1.0 4.14e+01  -2.8 3.22e-02 5.00e-01h  2
  54  3.6604160e-01 7.28e+00 1.94e+05  -1.0 2.04e+01  -3.3 1.00e+00 1.00e+00h  1
  55  3.6598604e-01 3.98e-01 6.26e+03  -1.0 1.66e+00  -2.0 1.00e+00 1.00e+00h  1
  56  3.6606223e-01 2.04e-01 9.46e+02  -1.0 9.03e-01  -2.4 1.00e+00 1.00e+00h  1
  57  3.6631141e-01 2.49e+00 1.67e+02  -1.0 2.93e+00  -2.9 1.00e+00 1.00e+00f  1
  58  3.6702061e-01 3.57e+01 2.08e+03  -1.0 9.36e+00  -3.4 1.00e+00 1.00e+00f  1
  59  3.6715024e-01 5.60e+01 6.85e+02  -1.0 6.56e+00  -3.0 1.00e+00 1.00e+00h  1
iter    objective    inf_pr   inf_du lg(mu)  ||d||  lg(rg) alpha_du alpha_pr  ls
  60  3.6751920e-01 4.43e+01 2.08e+03  -1.0 4.43e+00  -3.4 1.00e+00 1.00e+00h  1
  61  3.6810535e-01 1.15e+02 9.71e+02  -1.0 9.68e+00  -3.9 1.00e+00 1.00e+00h  1
  62  3.7048041e-01 3.84e+02 1.91e+03  -1.0 2.31e+01  -4.4 1.00e+00 1.00e+00h  1
  63  3.7057336e-01 4.12e+02 3.67e+03  -1.0 6.47e+01  -4.9 2.48e-01 6.25e-02h  5
  64  3.7068039e-01 4.31e+02 3.36e+03  -1.0 3.59e+01  -4.4 4.06e-01 6.25e-02h  5
  65  3.7079535e-01 4.46e+02 3.19e+03  -1.0 1.82e+01  -4.0 3.10e-01 1.25e-01h  4
  66  3.7084588e-01 4.31e+02 3.96e+03  -1.0 1.14e+01  -3.6 3.89e-01 1.25e-01h  4
  67  3.7089127e-01 5.32e+02 2.86e+03  -1.0 6.75e+00  -3.2 4.15e-01 2.50e-01h  3
  68  3.7092687e-01 9.53e+02 2.99e+03  -1.0 2.51e+00  -2.7 5.66e-01 5.00e-01h  2
  69  3.7095422e-01 6.97e+03 2.79e+03  -1.0 1.81e+00  -2.3 3.11e-01 1.00e+00H  1
iter    objective    inf_pr   inf_du lg(mu)  ||d||  lg(rg) alpha_du alpha_pr  ls
  70  3.7059946e-01 6.75e+03 2.71e+03  -1.0 5.44e+02    -  3.32e-01 3.12e-02h  6
Reallocating memory for MA57: lfact (275392)
  71  3.7064266e-01 1.44e+03 3.40e+03  -1.0 1.22e+00  -2.8 1.00e+00 1.00e+00h  1
  72  4.0399780e-01 3.91e+04 4.74e+04  -1.0 5.00e+02    -  7.20e-01 1.00e+00f  1
Reallocating memory for MA57: lfact (316572)
  73  3.8185261e-01 3.44e+04 3.35e+04  -1.0 1.57e+03    -  4.59e-01 1.25e-01f  4
Reallocating memory for MA57: lfact (337674)
  74  3.7710319e-01 3.24e+04 2.95e+04  -1.0 2.86e+03    -  6.02e-01 6.25e-02f  5
  75  3.7597149e-01 3.20e+04 2.88e+04  -1.0 6.86e+03    -  1.70e-01 1.56e-02f  7
  76  3.7548561e-01 3.18e+04 2.86e+04  -1.0 8.14e+03    -  4.54e-01 7.81e-03f  8
Reallocating memory for MA57: lfact (356569)
  77  3.7546717e-01 3.18e+04 2.85e+04  -1.0 1.38e+04    -  9.93e-02 2.44e-04h 13
  78  3.7545944e-01 3.18e+04 2.85e+04  -1.0 1.50e+04    -  2.99e-01 1.03e-04h 14
  79  3.7545801e-01 3.18e+04 2.85e+04  -1.0 1.93e+04    -  7.14e-02 2.98e-05h 15
iter    objective    inf_pr   inf_du lg(mu)  ||d||  lg(rg) alpha_du alpha_pr  ls
  80  3.7545760e-01 3.18e+04 2.85e+04  -1.0 1.99e+04    -  1.56e-01 2.45e-05h 15
  81  3.7545861e-01 3.18e+04 2.85e+04  -1.0 2.15e+04    -  7.14e-02 7.61e-06h 16
  82  3.7546029e-01 3.18e+04 2.85e+04  -1.0 2.28e+04    -  5.49e-02 5.48e-06h 16
  83  1.8097319e+00 4.42e+06 1.95e+06  -1.0 2.53e+04    -  4.88e-02 1.32e-01w  1
  84  3.9251776e-01 5.10e+05 2.44e+07  -1.0 4.90e+02  -3.3 2.54e-02 1.00e+00w  1
  85  3.9368961e-01 1.13e+05 5.70e+06  -1.0 3.85e+02  -3.7 1.00e+00 1.00e+00w  1
  86  3.7546257e-01 3.18e+04 2.85e+04  -1.0 7.64e+01  -4.2 4.88e-02 4.03e-06h 15
  87  3.7546393e-01 3.18e+04 2.85e+04  -1.0 3.12e+04    -  1.41e-02 1.39e-06h 17
  88  3.7546537e-01 3.18e+04 2.85e+04  -1.0 3.51e+04    -  4.65e-02 1.21e-06h 17
  89  3.7546609e-01 3.18e+04 2.85e+04  -1.0 7.45e+04    -  3.94e-03 2.35e-07h 18
iter    objective    inf_pr   inf_du lg(mu)  ||d||  lg(rg) alpha_du alpha_pr  ls
  90  3.7546679e-01 3.18e+04 2.85e+04  -1.0 9.59e+04    -  1.14e-02 1.78e-07h 18
  91  3.7121442e-01 1.81e+03 1.65e+03  -1.0 4.02e+01  -4.7 8.03e-01 1.00e+00H  1
  92  3.7172283e-01 1.97e+03 1.55e+03  -1.0 1.54e+03    -  6.73e-01 6.25e-02f  5
  93  3.7193081e-01 1.59e+03 1.15e+03  -1.0 3.47e+01  -5.2 1.00e+00 2.50e-01h  3
  94  3.7196253e-01 1.53e+03 1.08e+03  -1.0 1.50e+03    -  9.60e-01 6.25e-02h  5
  95  3.7210809e-01 1.44e+03 1.01e+03  -1.0 9.85e+01  -5.7 1.00e+00 6.25e-02h  5
  96  3.7214347e-01 1.39e+03 9.51e+02  -1.0 1.59e+03    -  9.65e-01 6.25e-02h  5
  97  3.7225502e-01 1.37e+03 9.36e+02  -1.0 2.82e+02  -6.1 1.00e+00 1.56e-02h  7
  98  3.7230393e-01 1.35e+03 9.06e+02  -1.0 1.67e+03    -  9.37e-01 3.12e-02h  6
  99  3.7242337e-01 1.35e+03 9.03e+02  -1.0 8.98e+02  -6.6 4.62e-01 3.91e-03h  9
iter    objective    inf_pr   inf_du lg(mu)  ||d||  lg(rg) alpha_du alpha_pr  ls
 100  3.7264626e-01 1.34e+03 8.99e+02  -1.0 1.41e+03  -7.1 5.42e-01 3.91e-03h  9
 101  3.7270134e-01 1.34e+03 8.98e+02  -1.0 7.80e+02  -6.7 8.84e-01 1.95e-03h 10
 102  7.5997552e-01 1.60e+06 7.40e+05  -1.0 2.18e+03    -  2.84e-01 1.00e+00w  1
 103  4.0815445e-01 3.66e+05 1.10e+05  -1.0 9.46e+02  -6.2 1.00e+00 1.00e+00w  1
 104  4.0129143e-01 3.69e+04 1.34e+05  -1.0 1.66e+02  -4.0 1.00e+00 9.14e-01w  1
 105  3.7277728e-01 1.34e+03 8.97e+02  -1.0 4.61e+02  -4.5 2.84e-01 9.77e-04h 10
 106  3.7311813e-01 1.40e+02 1.90e+01  -1.0 1.72e+01  -5.0 1.00e+00 1.00e+00h  1
 107  3.7304476e-01 2.01e+02 1.62e+03  -1.0 1.77e+03    -  9.77e-01 1.25e-01f  4
 108  3.7383755e-01 1.97e+01 5.10e+01  -1.0 4.54e+01  -5.4 1.00e+00 1.00e+00H  1
 109  3.7370742e-01 2.36e+02 4.45e+02  -1.0 2.03e+03    -  9.71e-01 6.25e-02f  5
iter    objective    inf_pr   inf_du lg(mu)  ||d||  lg(rg) alpha_du alpha_pr  ls
 110  3.7573811e-01 3.92e+02 9.37e+02  -1.0 1.23e+02  -5.9 1.00e+00 1.00e+00H  1
 111  3.7938585e-01 1.82e+02 4.16e+03  -1.0 2.39e+02  -6.4 1.00e+00 1.00e+00H  1
 112  3.7968245e-01 2.77e+02 3.13e+03  -1.0 9.55e+01  -6.0 1.00e+00 2.50e-01h  3
 113  3.7987947e-01 3.57e+02 2.94e+03  -1.0 2.45e+02  -6.4 1.00e+00 6.25e-02h  5
 114  3.8114888e-01 1.25e+02 3.23e+02  -1.0 1.04e+02  -6.0 1.00e+00 1.00e+00H  1
 115  3.8125074e-01 1.62e+02 9.98e+03  -1.0 2.27e+03    -  9.90e-01 2.50e-01f  3
 116  3.8348179e-01 6.89e+01 8.67e+02  -1.0 2.52e+02  -6.5 1.00e+00 1.00e+00H  1
 117  3.8334977e-01 2.23e+02 9.42e+02  -1.0 2.94e+03    -  8.37e-01 3.12e-02f  6
 118  3.8368183e-01 2.86e+02 9.42e+02  -1.0 6.20e+02  -7.0 1.00e+00 6.25e-02h  5
 119  3.8386894e-01 4.26e+02 1.14e+03  -1.0 3.09e+03    -  8.11e-01 3.12e-02h  6
iter    objective    inf_pr   inf_du lg(mu)  ||d||  lg(rg) alpha_du alpha_pr  ls
 120  3.8419918e-01 6.02e+02 1.16e+03  -1.0 2.02e+03  -7.4 1.00e+00 1.56e-02h  7
 121  3.8431634e-01 6.26e+02 1.17e+03  -1.0 4.61e+03    -  4.38e-01 7.81e-03h  8
 122  3.8435541e-01 6.26e+02 1.17e+03  -1.0 6.21e+02  -7.0 1.00e+00 7.81e-03h  8
 123  3.8439757e-01 6.28e+02 1.16e+03  -1.0 2.50e+03  -7.5 7.44e-01 3.91e-03h  9
 124  3.8444586e-01 6.31e+02 1.15e+03  -1.0 1.93e+03  -7.1 1.00e+00 7.81e-03h  8
 125  3.8455731e-01 5.70e+02 8.70e+04  -1.0 3.15e+02  -5.7 1.00e+00 2.50e-01h  3
 126  3.8486792e-01 6.14e+02 8.43e+04  -1.0 3.29e+03    -  8.01e-01 3.12e-02h  6
 127  3.8560882e-01 2.27e+03 2.02e+04  -1.0 1.11e+02  -6.2 1.00e+00 1.00e+00w  1
 128  4.1316640e-01 8.99e+04 4.25e+05  -1.0 3.29e+03    -  8.44e-01 1.00e+00w  1
 129  3.9123594e-01 4.64e+04 3.46e+07  -1.0 3.80e+03  -5.8 1.00e+00 9.21e-01w  1
iter    objective    inf_pr   inf_du lg(mu)  ||d||  lg(rg) alpha_du alpha_pr  ls
 130  3.8505839e-01 5.91e+02 6.45e+04  -1.0 8.02e+03  -6.3 1.00e+00 2.50e-01h  2
 131  3.8516372e-01 6.05e+02 6.35e+04  -1.0 3.33e+03    -  8.37e-01 1.56e-02h  7
 132  3.8763815e-01 5.45e+02 8.23e+03  -1.0 3.51e+02  -6.7 1.00e+00 1.00e+00H  1
 133  3.8792327e-01 6.14e+02 3.53e+03  -1.0 6.57e+02  -6.3 1.00e+00 2.50e-01h  3
 134  3.8835195e-01 1.35e+03 2.97e+06  -1.0 7.78e+03  -5.0 3.70e-01 5.82e-02h  3
 135  3.8916170e-01 1.59e+03 6.64e+05  -1.0 8.60e+02  -5.5 1.00e+00 1.00e+00h  1
 136  3.8930260e-01 1.59e+03 6.61e+05  -1.0 9.13e+03  -5.9 4.56e-01 4.03e-03h  5
 137  3.8959136e-01 1.52e+03 5.97e+05  -1.0 1.06e+03  -5.5 1.00e+00 6.98e-02h  4
 138  3.9001854e-01 1.20e+03 1.45e+05  -1.0 5.23e+02  -5.1 1.00e+00 2.50e-01h  3
 139  3.8984679e-01 1.02e+03 1.38e+07  -1.0 1.36e+03  -3.8 2.38e-01 5.00e-01h  2
iter    objective    inf_pr   inf_du lg(mu)  ||d||  lg(rg) alpha_du alpha_pr  ls
 140  3.8954059e-01 1.59e+03 3.52e+06  -1.0 8.67e+02  -4.2 1.00e+00 1.00e+00h  1
 141  3.8904664e-01 9.86e+02 3.52e+06  -1.0 4.24e+02  -4.7 1.00e+00 4.54e-01h  2
 142  3.8902911e-01 9.86e+02 3.51e+06  -1.0 3.86e+03  -5.2 3.56e-02 9.77e-04h 11
 143  3.8901293e-01 9.85e+02 3.51e+06  -1.0 3.93e+03  -5.7 5.46e-02 9.77e-04h 11
 144  3.8898745e-01 9.83e+02 3.50e+06  -1.0 4.17e+03  -6.1 7.28e-02 1.95e-03h 10
 145  3.8682793e-01 7.50e+02 2.91e+06  -1.0 4.74e+03  -6.6 5.23e-02 2.25e-01h  3
 146  3.8616099e-01 8.15e+02 2.50e+06  -1.0 3.45e+03  -6.2 5.53e-01 2.32e-01h  3
 147  3.8749282e-01 8.47e+02 2.47e+06  -1.0 1.66e+04  -6.7 1.28e-01 7.77e-03f  6
 148  3.8827472e-01 8.92e+02 2.31e+06  -1.0 2.22e+03  -6.2 1.00e+00 6.25e-02h  5
 149  3.8904944e-01 9.00e+02 2.29e+06  -1.0 9.84e+03  -6.7 2.46e-01 8.60e-03h  7
iter    objective    inf_pr   inf_du lg(mu)  ||d||  lg(rg) alpha_du alpha_pr  ls
 150  3.8923192e-01 9.00e+02 2.25e+06  -1.0 1.66e+03  -6.3 1.00e+00 1.56e-02h  7
 151  6.4719531e-01 5.02e+05 1.27e+07  -1.0 1.03e+04  -6.8 2.55e-01 6.16e-01w  1
 152  6.3576237e-01 4.90e+05 1.24e+07  -1.0 2.82e+03  -4.5 1.00e+00 2.36e-02w  1
 153  6.3522118e-01 4.90e+05 1.24e+07  -1.0 3.05e+03  -5.0 1.00e+00 1.10e-03w  1
 154  3.8944807e-01 9.06e+02 2.25e+06  -1.0 2.24e+04  -5.5 2.55e-01 2.41e-03h  8
 155  3.8958741e-01 8.94e+02 2.18e+06  -1.0 1.09e+03  -6.0 1.00e+00 3.12e-02h  6
 156  3.8970631e-01 8.98e+02 2.16e+06  -1.0 1.71e+03  -6.5 1.00e+00 7.81e-03h  8
 157  3.9384742e-01 4.16e+02 1.01e+06  -1.0 1.01e+03  -6.0 1.00e+00 1.00e+00H  1
 158  3.9386641e-01 4.00e+01 3.17e+03  -1.0 1.80e+01  -5.6 1.00e+00 1.00e+00h  1
 159  3.9391878e-01 1.78e+02 2.95e+03  -1.0 3.89e+03    -  8.69e-01 6.25e-02f  5
iter    objective    inf_pr   inf_du lg(mu)  ||d||  lg(rg) alpha_du alpha_pr  ls
 160  3.9400190e-01 3.04e+02 6.96e+01  -1.0 5.18e+01  -6.1 1.00e+00 1.00e+00h  1
 161  3.9402458e-01 4.55e+02 3.07e+03  -1.0 4.06e+03    -  1.00e+00 1.25e-01h  4
 162  3.9421267e-01 4.95e+01 1.01e+02  -1.0 1.37e+02  -6.6 1.00e+00 1.00e+00H  1
 163  3.9421119e-01 3.42e+02 3.33e+03  -1.0 4.56e+03    -  1.00e+00 1.25e-01f  4
 164  3.9462098e-01 3.88e+01 1.23e+03  -1.0 3.55e+02  -7.0 1.00e+00 1.00e+00H  1
 165  3.9459332e-01 2.89e+02 1.92e+03  -1.0 5.17e+03    -  1.00e+00 6.25e-02f  5
 166  3.9548040e-01 1.72e+02 1.06e+04  -1.0 9.50e+02  -7.5 1.00e+00 1.00e+00H  1
 167  3.9543841e-01 3.68e+02 1.04e+04  -1.0 5.70e+03    -  1.00e+00 3.12e-02h  6
 168  3.9555632e-01 5.12e+02 9.89e+03  -1.0 2.40e+03  -8.0 1.00e+00 6.25e-02h  5
 169  3.9559566e-01 5.31e+02 9.85e+03  -1.0 6.69e+03    -  1.00e+00 3.12e-02h  6
iter    objective    inf_pr   inf_du lg(mu)  ||d||  lg(rg) alpha_du alpha_pr  ls
 170  3.9570672e-01 5.62e+02 9.83e+03  -1.0 1.21e+04  -8.5 7.11e-01 3.91e-03h  9
 171  3.9618250e-01 5.84e+02 9.89e+03  -1.0 7.03e+04    -  9.91e-02 1.82e-03h  8
 172  3.9619706e-01 5.84e+02 9.86e+03  -1.0 2.74e+03  -8.0 1.00e+00 3.91e-03h  9
 173  3.9617800e-01 5.84e+02 9.85e+03  -1.0 8.32e+03    -  7.60e-01 9.77e-04h 11
 174  3.9615974e-01 5.84e+02 9.84e+03  -1.0 5.95e+03  -8.5 1.00e+00 9.77e-04h 11
 175  3.9616717e-01 5.84e+02 9.83e+03  -1.0 1.14e+04    -  6.39e-01 4.88e-04h 12
 176  3.9617343e-01 5.84e+02 9.81e+03  -1.0 2.97e+03  -8.1 1.00e+00 1.95e-03h 10
 177  3.9245536e-01 2.41e+05 1.28e+05  -1.0 7.44e+03    -  9.25e-01 1.00e+00w  1
 178  3.9440346e-01 7.67e+06 2.32e+06  -1.0 6.66e+04    -  4.76e-01 4.93e-01w  1
 179  4.0456388e-01 2.02e+07 1.45e+06  -1.0 4.20e+06    -  8.07e-05 9.81e-03w  1
iter    objective    inf_pr   inf_du lg(mu)  ||d||  lg(rg) alpha_du alpha_pr  ls
 180  3.9615882e-01 5.83e+02 9.79e+03  -1.0 3.49e+04  -8.6 9.25e-01 1.95e-03h  9
 181  3.9615958e-01 5.83e+02 9.77e+03  -1.0 2.78e+03  -8.1 1.00e+00 1.95e-03h 10
 182  3.9617724e-01 5.83e+02 9.76e+03  -1.0 9.10e+03    -  8.32e-01 1.95e-03h 10
 183  3.9685436e-01 1.35e+02 8.39e+03  -1.0 1.19e+03  -7.7 1.00e+00 1.00e+00H  1
 184  3.9676871e-01 2.63e+02 8.23e+03  -1.0 6.96e+03    -  1.00e+00 3.12e-02h  6
 185  3.9681339e-01 5.02e+02 7.86e+03  -1.0 2.82e+03  -8.2 1.00e+00 6.25e-02h  5
 186  3.9685076e-01 5.07e+02 7.83e+03  -1.0 8.74e+03    -  9.92e-01 1.56e-02h  7
 187  3.9697609e-01 5.36e+02 7.83e+03  -1.0 1.75e+04  -8.7 6.46e-01 3.91e-03h  9
 188  3.9699001e-01 5.38e+02 7.82e+03  -1.0 1.05e+04  -9.1 1.00e+00 1.95e-03h 10
 189  3.9701471e-01 5.41e+02 7.81e+03  -1.0 1.02e+04  -8.7 1.00e+00 1.95e-03h 10
iter    objective    inf_pr   inf_du lg(mu)  ||d||  lg(rg) alpha_du alpha_pr  ls
 190  3.9721116e-01 5.44e+02 7.83e+03  -1.0 5.02e+04    -  1.84e-01 1.65e-03h 10
 191  3.9722703e-01 5.44e+02 7.80e+03  -1.0 4.02e+03  -8.3 1.00e+00 3.91e-03h  9
 192  3.9720689e-01 5.44e+02 7.79e+03  -1.0 1.04e+04    -  7.38e-01 8.89e-04h 11
 193  3.9718627e-01 5.44e+02 7.79e+03  -1.0 9.76e+03  -8.8 1.00e+00 5.80e-04h 11
 194  3.9108159e-01 4.54e+05 1.57e+05  -1.0 9.16e+03    -  7.74e-01 1.00e+00w  1
 195  5.4682517e-01 1.70e+07 9.56e+06  -1.0 3.84e+04    -  6.28e-01 1.00e+00w  1
 196  3.8770154e-01 1.42e+06 1.42e+06  -1.0 4.20e+03  -9.2 1.00e+00 1.00e+00w  1
 197  3.9717546e-01 5.44e+02 7.78e+03  -1.0 3.11e+04    -  7.74e-01 9.77e-04h 10
 198  3.9715503e-01 5.44e+02 7.78e+03  -1.0 1.22e+04  -8.8 1.00e+00 3.75e-04h 11
 199  3.9707527e-01 5.43e+02 7.75e+03  -1.0 1.14e+04    -  5.66e-01 2.72e-03h  9
iter    objective    inf_pr   inf_du lg(mu)  ||d||  lg(rg) alpha_du alpha_pr  ls
 200  3.9706818e-01 5.43e+02 7.73e+03  -1.0 3.32e+03  -8.4 1.00e+00 1.95e-03h 10
 201  3.9710754e-01 5.43e+02 7.73e+03  -1.0 2.32e+04    -  3.76e-01 9.77e-04h 11
 202  3.9714261e-01 5.44e+02 7.72e+03  -1.0 3.21e+04  -8.9 1.00e+00 4.88e-04h 12
 203  3.9721613e-01 5.44e+02 7.73e+03  -1.0 1.88e+05  -9.4 4.25e-02 1.55e-04h 11
 204  3.9726148e-01 5.45e+02 7.73e+03  -1.0 7.20e+04  -8.9 1.00e+00 2.66e-04h 12
 205  3.9729180e-01 5.45e+02 7.71e+03  -1.0 9.02e+03  -8.5 1.00e+00 1.95e-03h 10
 206  3.9713301e-01 5.45e+02 7.71e+03  -1.0 1.87e+05    -  6.78e-02 2.51e-04h  8
 207  3.7890360e-01 2.11e+05 3.68e+05  -1.0 1.38e+04  -9.0 1.00e+00 3.74e-01w  1
 208  6.4685176e-01 9.65e+05 5.40e+06  -1.0 1.21e+04    -  1.07e-02 1.00e+00w  1
 209  8.3915927e-01 2.37e+04 1.05e+07  -1.0 1.11e+04    -  6.99e-01 1.00e+00w  1
iter    objective    inf_pr   inf_du lg(mu)  ||d||  lg(rg) alpha_du alpha_pr  ls
 210  3.9711278e-01 5.44e+02 7.71e+03  -1.0 3.38e+04    -  1.00e+00 3.66e-04h 10
 211  3.9707270e-01 5.44e+02 7.70e+03  -1.0 1.64e+04    -  3.84e-01 8.45e-04h 10
 212  3.9436784e-01 6.08e+02 5.62e+03  -1.0 1.53e+05  -9.5 6.74e-02 3.65e-03f  4
 213  3.9401205e-01 6.11e+02 5.52e+03  -1.0 2.11e+04  -9.0 1.00e+00 4.40e-03h  7
 214  3.9384851e-01 6.29e+02 5.44e+03  -1.0 9.75e+03    -  7.32e-01 7.81e-03h  8
 215  3.9381089e-01 6.48e+02 5.40e+03  -1.0 4.86e+03  -8.6 1.00e+00 7.81e-03h  8
 216  3.9399127e-01 6.60e+02 5.43e+03  -1.0 2.19e+04    -  3.32e-01 3.91e-03h  9
 217  3.9416154e-01 6.66e+02 5.44e+03  -1.0 5.53e+04  -9.1 3.71e-01 1.04e-03h 10
 218  3.9419493e-01 6.67e+02 5.44e+03  -1.0 1.46e+04  -8.7 1.00e+00 9.77e-04h 11
 219  3.9418894e-01 6.67e+02 5.44e+03  -1.0 1.00e+04    -  7.06e-01 4.88e-04h 12
iter    objective    inf_pr   inf_du lg(mu)  ||d||  lg(rg) alpha_du alpha_pr  ls
 220  3.9540303e-01 1.21e+05 4.96e+04  -1.0 2.56e+03  -8.2 1.00e+00 1.00e+00w  1
 221  3.9896663e-01 3.34e+05 4.80e+05  -1.0 9.59e+03    -  1.00e+00 1.00e+00w  1
 222  8.6453843e+00 8.24e+07 1.98e+08  -1.0 1.82e+05    -  2.12e-01 1.00e+00w  1
 223  3.9419462e-01 6.66e+02 5.42e+03  -1.0 8.43e+03  -8.7 1.00e+00 3.91e-03h  8
 224  3.9421660e-01 6.65e+02 5.41e+03  -1.0 1.17e+04    -  8.27e-01 1.95e-03h 10
 225  3.9423284e-01 6.65e+02 5.39e+03  -1.0 3.63e+03  -8.3 1.00e+00 3.91e-03h  9
 226  3.9422565e-01 6.64e+02 5.38e+03  -1.0 9.00e+03    -  1.00e+00 1.95e-03h 10
 227  3.9423653e-01 6.65e+02 5.38e+03  -1.0 1.34e+04  -8.8 8.20e-01 4.88e-04h 12
 228  3.9430438e-01 6.65e+02 5.38e+03  -1.0 2.97e+04    -  3.32e-01 9.77e-04h 11
 229  3.9432718e-01 6.65e+02 5.36e+03  -1.0 4.16e+03  -8.3 1.00e+00 3.91e-03h  9
iter    objective    inf_pr   inf_du lg(mu)  ||d||  lg(rg) alpha_du alpha_pr  ls
 230  3.9431367e-01 6.64e+02 5.35e+03  -1.0 1.01e+04    -  8.47e-01 9.77e-04h 11
 231  3.9430648e-01 6.64e+02 5.35e+03  -1.0 8.08e+03  -8.8 1.00e+00 4.88e-04h 12
 232  3.9432912e-01 6.64e+02 5.35e+03  -1.0 1.59e+04    -  6.10e-01 9.77e-04h 11
 233  3.9935925e-01 2.39e+05 1.88e+05  -1.0 4.64e+03  -8.4 1.00e+00 1.00e+00w  1
 234  4.0420359e-01 6.38e+05 1.41e+06  -1.0 1.11e+04    -  7.74e-01 9.32e-01w  1
 235  3.9557947e-01 9.77e+05 1.34e+06  -1.0 2.27e+05    -  1.86e-01 2.33e-02w  1
 236  3.9434111e-01 6.64e+02 5.34e+03  -1.0 1.30e+04  -8.9 1.00e+00 1.95e-03h  9
 237  3.9432527e-01 6.63e+02 5.33e+03  -1.0 9.59e+03    -  9.31e-01 1.95e-03h 10
 238  3.9432991e-01 6.63e+02 5.32e+03  -1.0 4.16e+03  -8.4 1.00e+00 1.95e-03h 10
 239  3.9435336e-01 6.63e+02 5.31e+03  -1.0 1.20e+04    -  8.07e-01 1.95e-03h 10
iter    objective    inf_pr   inf_du lg(mu)  ||d||  lg(rg) alpha_du alpha_pr  ls
 240  3.9574893e-01 1.69e+02 2.33e+04  -1.0 1.82e+03  -8.0 1.00e+00 1.00e+00H  1
 241  3.9562742e-01 2.69e+02 2.26e+04  -1.0 8.85e+03    -  1.00e+00 3.12e-02h  6
 242  3.9572051e-01 4.91e+02 2.15e+04  -1.0 4.06e+03  -8.5 1.00e+00 6.25e-02h  5
 243  3.9577144e-01 5.03e+02 2.12e+04  -1.0 1.14e+04    -  1.00e+00 1.56e-02h  7
 244  3.9601713e-01 5.47e+02 2.12e+04  -1.0 3.45e+04  -9.0 3.45e-01 3.91e-03h  9
 245  3.9603195e-01 5.52e+02 2.11e+04  -1.0 4.19e+03  -8.5 1.00e+00 7.81e-03h  8
 246  3.9603598e-01 5.54e+02 2.10e+04  -1.0 1.21e+04    -  1.00e+00 3.91e-03h  9
 247  3.9617594e-01 5.60e+02 2.10e+04  -1.0 7.74e+04  -9.0 1.27e-01 8.46e-04h 10
 248  3.9618639e-01 5.61e+02 2.09e+04  -1.0 5.18e+03  -8.6 1.00e+00 3.91e-03h  9
 249  3.9618264e-01 5.61e+02 2.08e+04  -1.0 1.13e+04    -  1.00e+00 3.91e-03h  9
iter    objective    inf_pr   inf_du lg(mu)  ||d||  lg(rg) alpha_du alpha_pr  ls
 250  3.9668400e-01 9.85e+01 9.56e+03  -1.0 1.87e+03  -8.2 1.00e+00 1.00e+00H  1
 251  3.9667455e-01 4.53e+02 1.02e+04  -1.0 1.06e+04    -  1.00e+00 6.25e-02h  5
 252  3.9674653e-01 9.58e+01 9.85e+03  -1.0 4.57e+03  -8.6 1.00e+00 6.25e-02h  5
 253  3.9680407e-01 3.99e+02 1.13e+04  -1.0 1.35e+04    -  1.00e+00 6.25e-02f  5
 254  3.9687222e-01 4.49e+02 1.13e+04  -1.0 1.53e+04  -9.1 1.00e+00 7.81e-03h  8
 255  3.9690435e-01 4.82e+02 1.13e+04  -1.0 1.58e+04    -  1.00e+00 1.56e-02h  7
 256  3.9786188e-01 5.41e+02 7.71e+04  -1.0 4.73e+03  -8.7 1.00e+00 1.00e+00H  1
 257  3.9774470e-01 1.13e+02 7.23e+04  -1.0 1.32e+04    -  1.00e+00 6.25e-02h  5
 258  3.9775197e-01 1.79e+02 7.01e+04  -1.0 9.01e+03  -9.2 1.00e+00 3.12e-02h  6
 259  3.9786798e-01 3.07e+02 6.87e+04  -1.0 2.22e+04    -  1.00e+00 3.12e-02h  6
iter    objective    inf_pr   inf_du lg(mu)  ||d||  lg(rg) alpha_du alpha_pr  ls
 260  3.9813886e-01 1.00e+02 1.41e+03  -1.0 3.61e+03  -8.7 1.00e+00 1.00e+00H  1
 261  3.9806007e-01 5.29e+02 8.03e+03  -1.0 1.78e+04    -  1.00e+00 1.25e-01h  4
 262  3.9833841e-01 3.79e+02 9.48e+04  -1.0 7.60e+03  -9.2 1.00e+00 1.00e+00H  1
 263  3.9840935e-01 3.55e+02 8.88e+04  -1.0 2.29e+04    -  1.00e+00 1.25e-01h  4
 264  3.9845873e-01 1.87e+02 8.38e+04  -1.0 1.49e+04  -9.7 1.00e+00 6.25e-02h  5
 265  3.9850027e-01 3.19e+02 8.20e+04  -1.0 3.26e+04    -  1.00e+00 3.12e-02h  6
 266  3.9935920e-01 8.79e+02 8.50e+04  -1.0 1.26e+05 -10.2 3.33e-01 1.56e-02h  7
 267  3.9938298e-01 8.89e+02 8.37e+04  -1.0 1.64e+04  -9.7 1.00e+00 1.56e-02h  7
 268  3.9934265e-01 8.89e+02 8.31e+04  -1.0 2.96e+04    -  1.00e+00 7.81e-03h  8
 269  3.9816465e-01 9.43e+02 8.15e+04  -1.0 1.39e+05 -10.2 1.00e+00 1.17e-02h  5
iter    objective    inf_pr   inf_du lg(mu)  ||d||  lg(rg) alpha_du alpha_pr  ls
 270  3.9692012e-01 9.54e+02 7.61e+04  -1.0 1.03e+05    -  4.99e-01 1.21e-02h  5
 271  3.9659596e-01 9.45e+02 7.58e+04  -1.0 6.32e+05 -10.7 1.51e-01 5.28e-04h  7
 272  3.9651356e-01 9.46e+02 7.57e+04  -1.0 3.77e+05 -11.2 1.38e-01 2.78e-04h  9
 273  3.8393733e-01 3.15e+06 2.48e+06  -1.0 1.29e+06 -11.7 3.99e-02 2.36e-02w  1
 274  3.7106981e-01 3.58e+06 1.49e+06  -1.0 1.85e+05    -  5.76e-01 1.61e-01w  1
 275  3.5747850e-01 4.13e+06 1.91e+06  -1.0 7.60e+04    -  8.29e-01 1.00e+00w  1
 276  3.9647064e-01 9.48e+02 7.57e+04  -1.0 1.37e+04    -  3.99e-02 4.61e-05h  9
 277  3.9645895e-01 9.48e+02 1.10e+05  -1.0 3.61e+05    -  2.58e-01 5.51e-05h 12
 278  3.9645493e-01 9.49e+02 9.81e+04  -1.0 1.08e+05    -  3.92e-01 1.22e-04h 14
 279  3.9645336e-01 9.49e+02 7.57e+04  -1.0 1.07e+05    -  5.57e-01 6.10e-05h 15
iter    objective    inf_pr   inf_du lg(mu)  ||d||  lg(rg) alpha_du alpha_pr  ls
 280  3.9645242e-01 9.49e+02 7.57e+04  -1.0 1.21e+05    -  8.28e-01 3.03e-05h 16
 281  3.9645184e-01 9.49e+02 7.57e+04  -1.0 1.27e+05    -  5.26e-01 1.53e-05h 17
 282  3.9645127e-01 9.49e+02 7.57e+04  -1.0 1.50e+05    -  4.19e-01 1.00e-05h 17
 283  3.9645097e-01 9.49e+02 7.57e+04  -1.0 1.58e+05    -  2.67e-01 5.91e-06h 18
 284  3.9645067e-01 9.49e+02 7.57e+04  -1.0 1.69e+05    -  4.52e-01 5.25e-06h 18
 285  3.9645041e-01 9.49e+02 7.57e+04  -1.0 1.72e+05    -  2.32e-01 5.14e-06h 18
 286  4.4159908e-01 1.55e+08 1.30e+07  -1.0 1.82e+05    -  4.84e-01 6.17e-01w  1
 287  3.8847442e-01 4.41e+07 3.35e+06  -1.0 7.33e+04    -  1.44e-02 1.00e+00w  1
 288  4.3465674e-01 1.45e+07 1.36e+07  -1.0 6.49e+04    -  6.65e-01 1.00e+00w  1
 289  3.9645027e-01 9.49e+02 7.57e+04  -1.0 3.77e+04    -  4.84e-01 2.35e-06h 18
iter    objective    inf_pr   inf_du lg(mu)  ||d||  lg(rg) alpha_du alpha_pr  ls
 290r 3.9645027e-01 9.49e+02 1.00e+03   2.0 0.00e+00    -  0.00e+00 7.44e-08R 24
 291r 8.5653324e+09 2.37e+02 9.48e+04   2.0 1.36e+05    -  1.98e-02 1.02e-03f  1
 292r 2.6024390e+12 3.15e+01 1.38e+05   2.0 1.53e+03    -  1.23e-01 2.02e-02f  1
 293r 1.2008346e+13 2.12e+01 1.31e+05   2.0 4.33e+01    -  5.81e-02 4.84e-02f  1
 294r 9.7771239e+13 1.85e+00 1.19e+05   2.0 2.38e+01    -  6.13e-01 2.01e-01f  1
 295r 5.5027724e+14 2.99e+00 3.41e+04   2.0 7.34e+00    -  6.41e-01 9.31e-01f  1
 296r 6.2402506e+14 2.70e+00 1.94e+01   2.0 5.10e-01    -  1.00e+00 1.00e+00f  1
 297  2.3319580e+11 4.76e-01 4.17e+14  -1.0 1.11e+03   4.2 9.63e-01 9.90e-01F  1
 298  2.1927604e+07 4.73e-03 3.60e+12  -1.0 1.31e+00   3.7 9.90e-01 9.90e-01f  1
 299  3.9693359e-01 1.46e-08 5.83e+05  -1.0 1.03e-03   3.2 1.00e+00 1.00e+00f  1
iter    objective    inf_pr   inf_du lg(mu)  ||d||  lg(rg) alpha_du alpha_pr  ls
 300  3.9693358e-01 2.18e-08 1.46e-02  -1.0 5.05e-09   2.8 1.00e+00 1.00e+00h  1
